9 7 87 57 20 12 27 86 35 62 60 77 23 98 91 45 32 15 17 11 47 1 63 6 92 75 19 49 90 10 84 72 21 74 59 36 99 38 24 18 79 53 88 94 16 22 70 66 26 65 4 97 56 80 31 89 42 8 67 28 93 58 61 51 25 81 69 64 40 54 2 44 82 95 13 76 33 37 5 52 78 96 39 50 73 68 85 30 48 100 41 71 14 3 43 46 29 34 83 55 9